formal/sby_fifo/model/design_smt2.smt2
; SMT-LIBv2 description generated by Yosys 0.56 (git sha1 9c447ad9d4b1ea589369364eea38b4d70da2c599, x86_64-w64-mingw32-g++ 16.1.0 -march=nocona -msahf -mtune=generic -O2 -fstack-protector-strong -O3)
; yosys-smt2-module gf_fifo
(declare-sort |gf_fifo_s| 0)
(declare-fun |gf_fifo_is| (|gf_fifo_s|) Bool)
(declare-fun |gf_fifo#0| (|gf_fifo_s|) Bool) ; \valid_i
; yosys-smt2-anyinit gf_fifo#1 3 $auto$clk2fflogic.cc:108:sample_data$136
; yosys-smt2-witness {"offset": 0, "path": ["\\cnt_q"], "smtname": 1, "smtoffset": 0, "type": "init", "width": 3}
(declare-fun |gf_fifo#1| (|gf_fifo_s|) (_ BitVec 3)) ; $auto$clk2fflogic.cc:101:sample_data$\cnt_q#sampled$135
; yosys-smt2-witness {"offset": 0, "path": ["$auto$clk2fflogic.cc:101:sample_data$$0\\cnt_q[2:0]#sampled$137"], "smtname": 2, "smtoffset": 0, "type": "reg", "width": 3}
(declare-fun |gf_fifo#2| (|gf_fifo_s|) (_ BitVec 3)) ; $auto$clk2fflogic.cc:101:sample_data$$0\cnt_q[2:0]#sampled$137
; yosys-smt2-witness {"offset": 0, "path": ["$auto$clk2fflogic.cc:87:sample_control_edge$\\clk_i#sampled$129"], "smtname": 3, "smtoffset": 0, "type": "reg", "width": 1}
(declare-fun |gf_fifo#3| (|gf_fifo_s|) (_ BitVec 1)) ; $auto$clk2fflogic.cc:87:sample_control_edge$\clk_i#sampled$129
(declare-fun |gf_fifo#4| (|gf_fifo_s|) (_ BitVec 1)) ; \clk_i
(define-fun |gf_fifo#5| ((state |gf_fifo_s|)) Bool (= (concat (|gf_fifo#3| state) (|gf_fifo#4| state)) #b01)) ; $auto$rtlil.cc:3019:Eqx$132
(define-fun |gf_fifo#6| ((state |gf_fifo_s|)) (_ BitVec 3) (ite (|gf_fifo#5| state) (|gf_fifo#2| state) (|gf_fifo#1| state))) ; $auto$rtlil.cc:3098:Mux$144
; yosys-smt2-witness {"offset": 0, "path": ["$auto$clk2fflogic.cc:75:sample_control$$auto$rtlil.cc:2963:Not$146#sampled$147"], "smtname": 7, "smtoffset": 0, "type": "reg", "width": 1}
(declare-fun |gf_fifo#7| (|gf_fifo_s|) (_ BitVec 1)) ; $auto$clk2fflogic.cc:75:sample_control$$auto$rtlil.cc:2963:Not$146#sampled$147
(define-fun |gf_fifo#8| ((state |gf_fifo_s|)) (_ BitVec 3) (ite (= ((_ extract 0 0) (|gf_fifo#7| state)) #b1) #b000 (|gf_fifo#6| state))) ; $auto$rtlil.cc:3098:Mux$150
(declare-fun |gf_fifo#9| (|gf_fifo_s|) (_ BitVec 1)) ; \rst_ni
(define-fun |gf_fifo#10| ((state |gf_fifo_s|)) (_ BitVec 3) (ite (= ((_ extract 0 0) (|gf_fifo#9| state)) #b1) (|gf_fifo#8| state) #b000)) ; \cnt_q
(define-fun |gf_fifo#11| ((state |gf_fifo_s|)) Bool (distinct (|gf_fifo#10| state) #b100)) ; \ready_o
(define-fun |gf_fifo#12| ((state |gf_fifo_s|)) Bool (and (or  (|gf_fifo#0| state) false) (or  (|gf_fifo#11| state) false))) ; \wr
; yosys-smt2-wire wr 1
(define-fun |gf_fifo_n wr| ((state |gf_fifo_s|)) Bool (|gf_fifo#12| state))
; yosys-smt2-anyinit gf_fifo#13 2 $auto$clk2fflogic.cc:108:sample_data$172
; yosys-smt2-witness {"offset": 0, "path": ["\\wptr_q"], "smtname": 13, "smtoffset": 0, "type": "init", "width": 2}
(declare-fun |gf_fifo#13| (|gf_fifo_s|) (_ BitVec 2)) ; $auto$clk2fflogic.cc:101:sample_data$\wptr_q#sampled$171
; yosys-smt2-witness {"offset": 0, "path": ["$auto$clk2fflogic.cc:101:sample_data$$0\\wptr_q[1:0]#sampled$173"], "smtname": 14, "smtoffset": 0, "type": "reg", "width": 2}
(declare-fun |gf_fifo#14| (|gf_fifo_s|) (_ BitVec 2)) ; $auto$clk2fflogic.cc:101:sample_data$$0\wptr_q[1:0]#sampled$173
(define-fun |gf_fifo#15| ((state |gf_fifo_s|)) (_ BitVec 2) (ite (|gf_fifo#5| state) (|gf_fifo#14| state) (|gf_fifo#13| state))) ; $auto$rtlil.cc:3098:Mux$180
(define-fun |gf_fifo#16| ((state |gf_fifo_s|)) (_ BitVec 2) (ite (= ((_ extract 0 0) (|gf_fifo#7| state)) #b1) #b00 (|gf_fifo#15| state))) ; $auto$rtlil.cc:3098:Mux$186
(define-fun |gf_fifo#17| ((state |gf_fifo_s|)) (_ BitVec 2) (ite (= ((_ extract 0 0) (|gf_fifo#9| state)) #b1) (|gf_fifo#16| state) #b00)) ; \wptr_q
; yosys-smt2-wire wptr_q 2
(define-fun |gf_fifo_n wptr_q| ((state |gf_fifo_s|)) (_ BitVec 2) (|gf_fifo#17| state))
(define-fun |gf_fifo#18| ((state |gf_fifo_s|)) Bool (distinct (|gf_fifo#10| state) #b000)) ; \valid_o
; yosys-smt2-output valid_o 1
; yosys-smt2-wire valid_o 1
(define-fun |gf_fifo_n valid_o| ((state |gf_fifo_s|)) Bool (|gf_fifo#18| state))
; yosys-smt2-input valid_i 1
; yosys-smt2-wire valid_i 1
; yosys-smt2-witness {"offset": 0, "path": ["\\valid_i"], "smtname": "valid_i", "smtoffset": 0, "type": "input", "width": 1}
(define-fun |gf_fifo_n valid_i| ((state |gf_fifo_s|)) Bool (|gf_fifo#0| state))
; yosys-smt2-input rst_ni 1
; yosys-smt2-wire rst_ni 1
; yosys-smt2-witness {"offset": 0, "path": ["\\rst_ni"], "smtname": "rst_ni", "smtoffset": 0, "type": "input", "width": 1}
(define-fun |gf_fifo_n rst_ni| ((state |gf_fifo_s|)) Bool (= ((_ extract 0 0) (|gf_fifo#9| state)) #b1))
; yosys-smt2-anyinit gf_fifo#19 2 $auto$clk2fflogic.cc:108:sample_data$154
; yosys-smt2-witness {"offset": 0, "path": ["\\rptr_q"], "smtname": 19, "smtoffset": 0, "type": "init", "width": 2}
(declare-fun |gf_fifo#19| (|gf_fifo_s|) (_ BitVec 2)) ; $auto$clk2fflogic.cc:101:sample_data$\rptr_q#sampled$153
; yosys-smt2-witness {"offset": 0, "path": ["$auto$clk2fflogic.cc:101:sample_data$$0\\rptr_q[1:0]#sampled$155"], "smtname": 20, "smtoffset": 0, "type": "reg", "width": 2}
(declare-fun |gf_fifo#20| (|gf_fifo_s|) (_ BitVec 2)) ; $auto$clk2fflogic.cc:101:sample_data$$0\rptr_q[1:0]#sampled$155
(define-fun |gf_fifo#21| ((state |gf_fifo_s|)) (_ BitVec 2) (ite (|gf_fifo#5| state) (|gf_fifo#20| state) (|gf_fifo#19| state))) ; $auto$rtlil.cc:3098:Mux$162
(define-fun |gf_fifo#22| ((state |gf_fifo_s|)) (_ BitVec 2) (ite (= ((_ extract 0 0) (|gf_fifo#7| state)) #b1) #b00 (|gf_fifo#21| state))) ; $auto$rtlil.cc:3098:Mux$168
(define-fun |gf_fifo#23| ((state |gf_fifo_s|)) (_ BitVec 2) (ite (= ((_ extract 0 0) (|gf_fifo#9| state)) #b1) (|gf_fifo#22| state) #b00)) ; \rptr_q
; yosys-smt2-wire rptr_q 2
(define-fun |gf_fifo_n rptr_q| ((state |gf_fifo_s|)) (_ BitVec 2) (|gf_fifo#23| state))
; yosys-smt2-output ready_o 1
; yosys-smt2-wire ready_o 1
(define-fun |gf_fifo_n ready_o| ((state |gf_fifo_s|)) Bool (|gf_fifo#11| state))
(declare-fun |gf_fifo#24| (|gf_fifo_s|) Bool) ; \ready_i
; yosys-smt2-input ready_i 1
; yosys-smt2-wire ready_i 1
; yosys-smt2-witness {"offset": 0, "path": ["\\ready_i"], "smtname": "ready_i", "smtoffset": 0, "type": "input", "width": 1}
(define-fun |gf_fifo_n ready_i| ((state |gf_fifo_s|)) Bool (|gf_fifo#24| state))
(define-fun |gf_fifo#25| ((state |gf_fifo_s|)) Bool (and (or  (|gf_fifo#18| state) false) (or  (|gf_fifo#24| state) false))) ; \rd
; yosys-smt2-wire rd 1
(define-fun |gf_fifo_n rd| ((state |gf_fifo_s|)) Bool (|gf_fifo#25| state))
; yosys-smt2-anyinit gf_fifo#26 32 $auto$clk2fflogic.cc:108:sample_data$190
; yosys-smt2-witness {"offset": 0, "path": ["\\mem[3]"], "smtname": 26, "smtoffset": 0, "type": "init", "width": 32}
(declare-fun |gf_fifo#26| (|gf_fifo_s|) (_ BitVec 32)) ; $auto$clk2fflogic.cc:101:sample_data$\mem[3]#sampled$189
; yosys-smt2-witness {"offset": 0, "path": ["$auto$clk2fflogic.cc:101:sample_data$$auto$rtlil.cc:3098:Mux$113#sampled$191"], "smtname": 27, "smtoffset": 0, "type": "reg", "width": 32}
(declare-fun |gf_fifo#27| (|gf_fifo_s|) (_ BitVec 32)) ; $auto$clk2fflogic.cc:101:sample_data$$auto$rtlil.cc:3098:Mux$113#sampled$191
(define-fun |gf_fifo#28| ((state |gf_fifo_s|)) (_ BitVec 32) (ite (|gf_fifo#5| state) (|gf_fifo#27| state) (|gf_fifo#26| state))) ; \mem[3]
; yosys-smt2-wire mem[3] 32
(define-fun |gf_fifo_n mem[3]| ((state |gf_fifo_s|)) (_ BitVec 32) (|gf_fifo#28| state))
; yosys-smt2-anyinit gf_fifo#29 32 $auto$clk2fflogic.cc:108:sample_data$200
; yosys-smt2-witness {"offset": 0, "path": ["\\mem[2]"], "smtname": 29, "smtoffset": 0, "type": "init", "width": 32}
(declare-fun |gf_fifo#29| (|gf_fifo_s|) (_ BitVec 32)) ; $auto$clk2fflogic.cc:101:sample_data$\mem[2]#sampled$199
; yosys-smt2-witness {"offset": 0, "path": ["$auto$clk2fflogic.cc:101:sample_data$$auto$rtlil.cc:3098:Mux$106#sampled$201"], "smtname": 30, "smtoffset": 0, "type": "reg", "width": 32}
(declare-fun |gf_fifo#30| (|gf_fifo_s|) (_ BitVec 32)) ; $auto$clk2fflogic.cc:101:sample_data$$auto$rtlil.cc:3098:Mux$106#sampled$201
(define-fun |gf_fifo#31| ((state |gf_fifo_s|)) (_ BitVec 32) (ite (|gf_fifo#5| state) (|gf_fifo#30| state) (|gf_fifo#29| state))) ; \mem[2]
; yosys-smt2-wire mem[2] 32
(define-fun |gf_fifo_n mem[2]| ((state |gf_fifo_s|)) (_ BitVec 32) (|gf_fifo#31| state))
; yosys-smt2-anyinit gf_fifo#32 32 $auto$clk2fflogic.cc:108:sample_data$210
; yosys-smt2-witness {"offset": 0, "path": ["\\mem[1]"], "smtname": 32, "smtoffset": 0, "type": "init", "width": 32}
(declare-fun |gf_fifo#32| (|gf_fifo_s|) (_ BitVec 32)) ; $auto$clk2fflogic.cc:101:sample_data$\mem[1]#sampled$209
; yosys-smt2-witness {"offset": 0, "path": ["$auto$clk2fflogic.cc:101:sample_data$$auto$rtlil.cc:3098:Mux$99#sampled$211"], "smtname": 33, "smtoffset": 0, "type": "reg", "width": 32}
(declare-fun |gf_fifo#33| (|gf_fifo_s|) (_ BitVec 32)) ; $auto$clk2fflogic.cc:101:sample_data$$auto$rtlil.cc:3098:Mux$99#sampled$211
(define-fun |gf_fifo#34| ((state |gf_fifo_s|)) (_ BitVec 32) (ite (|gf_fifo#5| state) (|gf_fifo#33| state) (|gf_fifo#32| state))) ; \mem[1]
; yosys-smt2-wire mem[1] 32
(define-fun |gf_fifo_n mem[1]| ((state |gf_fifo_s|)) (_ BitVec 32) (|gf_fifo#34| state))
; yosys-smt2-anyinit gf_fifo#35 32 $auto$clk2fflogic.cc:108:sample_data$126
; yosys-smt2-witness {"offset": 0, "path": ["\\mem[0]"], "smtname": 35, "smtoffset": 0, "type": "init", "width": 32}
(declare-fun |gf_fifo#35| (|gf_fifo_s|) (_ BitVec 32)) ; $auto$clk2fflogic.cc:101:sample_data$\mem[0]#sampled$125
; yosys-smt2-witness {"offset": 0, "path": ["$auto$clk2fflogic.cc:101:sample_data$$auto$rtlil.cc:3098:Mux$92#sampled$127"], "smtname": 36, "smtoffset": 0, "type": "reg", "width": 32}
(declare-fun |gf_fifo#36| (|gf_fifo_s|) (_ BitVec 32)) ; $auto$clk2fflogic.cc:101:sample_data$$auto$rtlil.cc:3098:Mux$92#sampled$127
(define-fun |gf_fifo#37| ((state |gf_fifo_s|)) (_ BitVec 32) (ite (|gf_fifo#5| state) (|gf_fifo#36| state) (|gf_fifo#35| state))) ; \mem[0]
; yosys-smt2-wire mem[0] 32
(define-fun |gf_fifo_n mem[0]| ((state |gf_fifo_s|)) (_ BitVec 32) (|gf_fifo#37| state))
; yosys-smt2-anyseq gf_fifo#38 32 $auto$setundef.cc:533:execute$219
; yosys-smt2-witness {"offset": 0, "path": ["\\_witness_", "\\anyseq_auto_setundef_cc_533_execute_219"], "smtname": 38, "smtoffset": 0, "type": "seq", "width": 32}
(declare-fun |gf_fifo#38| (|gf_fifo_s|) (_ BitVec 32)) ; \_witness_.anyseq_auto_setundef_cc_533_execute_219
(define-fun |gf_fifo#39| ((state |gf_fifo_s|)) Bool (= (|gf_fifo#23| state) #b11)) ; $eq$gf_fifo.sv:49$18_Y
(define-fun |gf_fifo#40| ((state |gf_fifo_s|)) Bool (= (|gf_fifo#23| state) #b10)) ; $procmux$28_CMP
(define-fun |gf_fifo#41| ((state |gf_fifo_s|)) Bool (= (|gf_fifo#23| state) #b01)) ; $procmux$29_CMP
(define-fun |gf_fifo#42| ((state |gf_fifo_s|)) Bool (not (or  (= ((_ extract 0 0) (|gf_fifo#23| state)) #b1) (= ((_ extract 1 1) (|gf_fifo#23| state)) #b1)))) ; $procmux$30_CMP
(define-fun |gf_fifo#43| ((state |gf_fifo_s|)) (_ BitVec 32) (ite (|gf_fifo#42| state) (|gf_fifo#37| state) (ite (|gf_fifo#41| state) (|gf_fifo#34| state) (ite (|gf_fifo#40| state) (|gf_fifo#31| state) (ite (|gf_fifo#39| state) (|gf_fifo#28| state) (|gf_fifo#38| state)))))) ; \data_o
; yosys-smt2-output data_o 32
; yosys-smt2-wire data_o 32
(define-fun |gf_fifo_n data_o| ((state |gf_fifo_s|)) (_ BitVec 32) (|gf_fifo#43| state))
(declare-fun |gf_fifo#44| (|gf_fifo_s|) (_ BitVec 32)) ; \data_i
; yosys-smt2-input data_i 32
; yosys-smt2-wire data_i 32
; yosys-smt2-witness {"offset": 0, "path": ["\\data_i"], "smtname": "data_i", "smtoffset": 0, "type": "input", "width": 32}
(define-fun |gf_fifo_n data_i| ((state |gf_fifo_s|)) (_ BitVec 32) (|gf_fifo#44| state))
; yosys-smt2-output count_o 3
; yosys-smt2-wire count_o 3
(define-fun |gf_fifo_n count_o| ((state |gf_fifo_s|)) (_ BitVec 3) (|gf_fifo#10| state))
; yosys-smt2-wire cnt_q 3
(define-fun |gf_fifo_n cnt_q| ((state |gf_fifo_s|)) (_ BitVec 3) (|gf_fifo#10| state))
; yosys-smt2-input clk_i 1
; yosys-smt2-wire clk_i 1
; yosys-smt2-witness {"offset": 0, "path": ["\\clk_i"], "smtname": "clk_i", "smtoffset": 0, "type": "input", "width": 1}
(define-fun |gf_fifo_n clk_i| ((state |gf_fifo_s|)) Bool (= ((_ extract 0 0) (|gf_fifo#4| state)) #b1))
; yosys-smt2-wire _witness_.anyseq_auto_setundef_cc_533_execute_219 32
(define-fun |gf_fifo_n _witness_.anyseq_auto_setundef_cc_533_execute_219| ((state |gf_fifo_s|)) (_ BitVec 32) (|gf_fifo#38| state))
; yosys-smt2-register $auto$clk2fflogic.cc:87:sample_control_edge$/clk_i#sampled$129 1
(define-fun |gf_fifo_n $auto$clk2fflogic.cc:87:sample_control_edge$/clk_i#sampled$129| ((state |gf_fifo_s|)) Bool (= ((_ extract 0 0) (|gf_fifo#3| state)) #b1))
; yosys-smt2-register $auto$clk2fflogic.cc:75:sample_control$$auto$rtlil.cc:2963:Not$146#sampled$147 1
(define-fun |gf_fifo_n $auto$clk2fflogic.cc:75:sample_control$$auto$rtlil.cc:2963:Not$146#sampled$147| ((state |gf_fifo_s|)) Bool (= ((_ extract 0 0) (|gf_fifo#7| state)) #b1))
; yosys-smt2-register $auto$clk2fflogic.cc:101:sample_data$/wptr_q#sampled$171 2
(define-fun |gf_fifo_n $auto$clk2fflogic.cc:101:sample_data$/wptr_q#sampled$171| ((state |gf_fifo_s|)) (_ BitVec 2) (|gf_fifo#13| state))
; yosys-smt2-register $auto$clk2fflogic.cc:101:sample_data$/rptr_q#sampled$153 2
(define-fun |gf_fifo_n $auto$clk2fflogic.cc:101:sample_data$/rptr_q#sampled$153| ((state |gf_fifo_s|)) (_ BitVec 2) (|gf_fifo#19| state))
; yosys-smt2-register $auto$clk2fflogic.cc:101:sample_data$/mem[3]#sampled$189 32
(define-fun |gf_fifo_n $auto$clk2fflogic.cc:101:sample_data$/mem[3]#sampled$189| ((state |gf_fifo_s|)) (_ BitVec 32) (|gf_fifo#26| state))
; yosys-smt2-register $auto$clk2fflogic.cc:101:sample_data$/mem[2]#sampled$199 32
(define-fun |gf_fifo_n $auto$clk2fflogic.cc:101:sample_data$/mem[2]#sampled$199| ((state |gf_fifo_s|)) (_ BitVec 32) (|gf_fifo#29| state))
; yosys-smt2-register $auto$clk2fflogic.cc:101:sample_data$/mem[1]#sampled$209 32
(define-fun |gf_fifo_n $auto$clk2fflogic.cc:101:sample_data$/mem[1]#sampled$209| ((state |gf_fifo_s|)) (_ BitVec 32) (|gf_fifo#32| state))
; yosys-smt2-register $auto$clk2fflogic.cc:101:sample_data$/mem[0]#sampled$125 32
(define-fun |gf_fifo_n $auto$clk2fflogic.cc:101:sample_data$/mem[0]#sampled$125| ((state |gf_fifo_s|)) (_ BitVec 32) (|gf_fifo#35| state))
; yosys-smt2-register $auto$clk2fflogic.cc:101:sample_data$/cnt_q#sampled$135 3
(define-fun |gf_fifo_n $auto$clk2fflogic.cc:101:sample_data$/cnt_q#sampled$135| ((state |gf_fifo_s|)) (_ BitVec 3) (|gf_fifo#1| state))
; yosys-smt2-register $auto$clk2fflogic.cc:101:sample_data$$auto$rtlil.cc:3098:Mux$99#sampled$211 32
(define-fun |gf_fifo_n $auto$clk2fflogic.cc:101:sample_data$$auto$rtlil.cc:3098:Mux$99#sampled$211| ((state |gf_fifo_s|)) (_ BitVec 32) (|gf_fifo#33| state))
; yosys-smt2-register $auto$clk2fflogic.cc:101:sample_data$$auto$rtlil.cc:3098:Mux$92#sampled$127 32
(define-fun |gf_fifo_n $auto$clk2fflogic.cc:101:sample_data$$auto$rtlil.cc:3098:Mux$92#sampled$127| ((state |gf_fifo_s|)) (_ BitVec 32) (|gf_fifo#36| state))
; yosys-smt2-register $auto$clk2fflogic.cc:101:sample_data$$auto$rtlil.cc:3098:Mux$113#sampled$191 32
(define-fun |gf_fifo_n $auto$clk2fflogic.cc:101:sample_data$$auto$rtlil.cc:3098:Mux$113#sampled$191| ((state |gf_fifo_s|)) (_ BitVec 32) (|gf_fifo#27| state))
; yosys-smt2-register $auto$clk2fflogic.cc:101:sample_data$$auto$rtlil.cc:3098:Mux$106#sampled$201 32
(define-fun |gf_fifo_n $auto$clk2fflogic.cc:101:sample_data$$auto$rtlil.cc:3098:Mux$106#sampled$201| ((state |gf_fifo_s|)) (_ BitVec 32) (|gf_fifo#30| state))
; yosys-smt2-register $auto$clk2fflogic.cc:101:sample_data$$0/wptr_q[1:0]#sampled$173 2
(define-fun |gf_fifo_n $auto$clk2fflogic.cc:101:sample_data$$0/wptr_q[1:0]#sampled$173| ((state |gf_fifo_s|)) (_ BitVec 2) (|gf_fifo#14| state))
; yosys-smt2-register $auto$clk2fflogic.cc:101:sample_data$$0/rptr_q[1:0]#sampled$155 2
(define-fun |gf_fifo_n $auto$clk2fflogic.cc:101:sample_data$$0/rptr_q[1:0]#sampled$155| ((state |gf_fifo_s|)) (_ BitVec 2) (|gf_fifo#20| state))
; yosys-smt2-register $auto$clk2fflogic.cc:101:sample_data$$0/cnt_q[2:0]#sampled$137 3
(define-fun |gf_fifo_n $auto$clk2fflogic.cc:101:sample_data$$0/cnt_q[2:0]#sampled$137| ((state |gf_fifo_s|)) (_ BitVec 3) (|gf_fifo#2| state))
(define-fun |gf_fifo#45| ((state |gf_fifo_s|)) Bool (not (or  (= ((_ extract 0 0) (|gf_fifo#17| state)) #b1) (= ((_ extract 1 1) (|gf_fifo#17| state)) #b1)))) ; $procmux$60_CMP
(define-fun |gf_fifo#46| ((state |gf_fifo_s|)) (_ BitVec 32) (ite (|gf_fifo#45| state) (|gf_fifo#44| state) (|gf_fifo#37| state))) ; $procmux$59_Y
(define-fun |gf_fifo#47| ((state |gf_fifo_s|)) (_ BitVec 32) (ite (|gf_fifo#12| state) (|gf_fifo#46| state) (|gf_fifo#37| state))) ; $0\mem[0][31:0]
(define-fun |gf_fifo#48| ((state |gf_fifo_s|)) (_ BitVec 32) (ite (= ((_ extract 0 0) (|gf_fifo#9| state)) #b1) (|gf_fifo#47| state) (|gf_fifo#37| state))) ; $auto$rtlil.cc:3098:Mux$92
(define-fun |gf_fifo#49| ((state |gf_fifo_s|)) Bool (= (|gf_fifo#17| state) #b01)) ; $procmux$52_CMP
(define-fun |gf_fifo#50| ((state |gf_fifo_s|)) (_ BitVec 32) (ite (|gf_fifo#49| state) (|gf_fifo#44| state) (|gf_fifo#34| state))) ; $procmux$51_Y
(define-fun |gf_fifo#51| ((state |gf_fifo_s|)) (_ BitVec 32) (ite (|gf_fifo#12| state) (|gf_fifo#50| state) (|gf_fifo#34| state))) ; $0\mem[1][31:0]
(define-fun |gf_fifo#52| ((state |gf_fifo_s|)) (_ BitVec 32) (ite (= ((_ extract 0 0) (|gf_fifo#9| state)) #b1) (|gf_fifo#51| state) (|gf_fifo#34| state))) ; $auto$rtlil.cc:3098:Mux$99
(define-fun |gf_fifo#53| ((state |gf_fifo_s|)) Bool (= (|gf_fifo#17| state) #b10)) ; $procmux$45_CMP
(define-fun |gf_fifo#54| ((state |gf_fifo_s|)) (_ BitVec 32) (ite (|gf_fifo#53| state) (|gf_fifo#44| state) (|gf_fifo#31| state))) ; $procmux$44_Y
(define-fun |gf_fifo#55| ((state |gf_fifo_s|)) (_ BitVec 32) (ite (|gf_fifo#12| state) (|gf_fifo#54| state) (|gf_fifo#31| state))) ; $0\mem[2][31:0]
(define-fun |gf_fifo#56| ((state |gf_fifo_s|)) (_ BitVec 32) (ite (= ((_ extract 0 0) (|gf_fifo#9| state)) #b1) (|gf_fifo#55| state) (|gf_fifo#31| state))) ; $auto$rtlil.cc:3098:Mux$106
(define-fun |gf_fifo#57| ((state |gf_fifo_s|)) Bool (= (|gf_fifo#17| state) #b11)) ; $eq$gf_fifo.sv:46$15_Y
(define-fun |gf_fifo#58| ((state |gf_fifo_s|)) (_ BitVec 32) (ite (|gf_fifo#57| state) (|gf_fifo#44| state) (|gf_fifo#28| state))) ; $procmux$38_Y
(define-fun |gf_fifo#59| ((state |gf_fifo_s|)) (_ BitVec 32) (ite (|gf_fifo#12| state) (|gf_fifo#58| state) (|gf_fifo#28| state))) ; $0\mem[3][31:0]
(define-fun |gf_fifo#60| ((state |gf_fifo_s|)) (_ BitVec 32) (ite (= ((_ extract 0 0) (|gf_fifo#9| state)) #b1) (|gf_fifo#59| state) (|gf_fifo#28| state))) ; $auto$rtlil.cc:3098:Mux$113
(define-fun |gf_fifo#61| ((state |gf_fifo_s|)) (_ BitVec 2) (bvadd (|gf_fifo#23| state) #b01)) ; $add$gf_fifo.sv:49$19_Y
(define-fun |gf_fifo#62| ((state |gf_fifo_s|)) (_ BitVec 2) (ite (|gf_fifo#39| state) #b00 (|gf_fifo#61| state))) ; $ternary$gf_fifo.sv:49$20_Y
(define-fun |gf_fifo#63| ((state |gf_fifo_s|)) (_ BitVec 2) (ite (|gf_fifo#25| state) (|gf_fifo#62| state) (|gf_fifo#23| state))) ; $0\rptr_q[1:0]
(define-fun |gf_fifo#64| ((state |gf_fifo_s|)) (_ BitVec 2) (bvadd (|gf_fifo#17| state) #b01)) ; $add$gf_fifo.sv:46$16_Y
(define-fun |gf_fifo#65| ((state |gf_fifo_s|)) (_ BitVec 2) (ite (|gf_fifo#57| state) #b00 (|gf_fifo#64| state))) ; $ternary$gf_fifo.sv:46$17_Y
(define-fun |gf_fifo#66| ((state |gf_fifo_s|)) (_ BitVec 2) (ite (|gf_fifo#12| state) (|gf_fifo#65| state) (|gf_fifo#17| state))) ; $0\wptr_q[1:0]
(define-fun |gf_fifo#67| ((state |gf_fifo_s|)) (_ BitVec 1) (bvnot (|gf_fifo#9| state))) ; $auto$rtlil.cc:2963:Not$146
(define-fun |gf_fifo#68| ((state |gf_fifo_s|)) (_ BitVec 3) (bvsub (|gf_fifo#10| state) #b001)) ; $sub$gf_fifo.sv:53$22_Y
(define-fun |gf_fifo#69| ((state |gf_fifo_s|)) (_ BitVec 3) (bvadd (|gf_fifo#10| state) #b001)) ; $add$gf_fifo.sv:52$21_Y
(define-fun |gf_fifo#70| ((state |gf_fifo_s|)) Bool (= (concat (ite (|gf_fifo#12| state) #b1 #b0) (ite (|gf_fifo#25| state) #b1 #b0)) #b01)) ; $procmux$65_CMP
(define-fun |gf_fifo#71| ((state |gf_fifo_s|)) Bool (= (concat (ite (|gf_fifo#12| state) #b1 #b0) (ite (|gf_fifo#25| state) #b1 #b0)) #b10)) ; $procmux$66_CMP
(define-fun |gf_fifo#72| ((state |gf_fifo_s|)) (_ BitVec 3) (ite (|gf_fifo#71| state) (|gf_fifo#69| state) (ite (|gf_fifo#70| state) (|gf_fifo#68| state) (|gf_fifo#10| state)))) ; $0\cnt_q[2:0]
(define-fun |gf_fifo_a| ((state |gf_fifo_s|)) Bool true)
(define-fun |gf_fifo_u| ((state |gf_fifo_s|)) Bool true)
(define-fun |gf_fifo_i| ((state |gf_fifo_s|)) Bool (and
  (= (= ((_ extract 0 0) (|gf_fifo#3| state)) #b1) true) ; $auto$clk2fflogic.cc:87:sample_control_edge$/clk_i#sampled$129
  (= (= ((_ extract 0 0) (|gf_fifo#7| state)) #b1) false) ; $auto$clk2fflogic.cc:75:sample_control$$auto$rtlil.cc:2963:Not$146#sampled$147
  (= (|gf_fifo#33| state) #b00000000000000000000000000000000) ; $auto$clk2fflogic.cc:101:sample_data$$auto$rtlil.cc:3098:Mux$99#sampled$211
  (= (|gf_fifo#36| state) #b00000000000000000000000000000000) ; $auto$clk2fflogic.cc:101:sample_data$$auto$rtlil.cc:3098:Mux$92#sampled$127
  (= (|gf_fifo#27| state) #b00000000000000000000000000000000) ; $auto$clk2fflogic.cc:101:sample_data$$auto$rtlil.cc:3098:Mux$113#sampled$191
  (= (|gf_fifo#30| state) #b00000000000000000000000000000000) ; $auto$clk2fflogic.cc:101:sample_data$$auto$rtlil.cc:3098:Mux$106#sampled$201
  (= (|gf_fifo#14| state) #b00) ; $auto$clk2fflogic.cc:101:sample_data$$0/wptr_q[1:0]#sampled$173
  (= (|gf_fifo#20| state) #b00) ; $auto$clk2fflogic.cc:101:sample_data$$0/rptr_q[1:0]#sampled$155
  (= (|gf_fifo#2| state) #b000) ; $auto$clk2fflogic.cc:101:sample_data$$0/cnt_q[2:0]#sampled$137
))
(define-fun |gf_fifo_h| ((state |gf_fifo_s|)) Bool true)
(define-fun |gf_fifo_t| ((state |gf_fifo_s|) (next_state |gf_fifo_s|)) Bool (and
  (= (|gf_fifo#48| state) (|gf_fifo#36| next_state)) ; $auto$clk2fflogic.cc:108:sample_data$128 $auto$clk2fflogic.cc:101:sample_data$$auto$rtlil.cc:3098:Mux$92#sampled$127
  (= (|gf_fifo#37| state) (|gf_fifo#35| next_state)) ; $auto$clk2fflogic.cc:108:sample_data$126 $auto$clk2fflogic.cc:101:sample_data$\mem[0]#sampled$125
  (= (|gf_fifo#52| state) (|gf_fifo#33| next_state)) ; $auto$clk2fflogic.cc:108:sample_data$212 $auto$clk2fflogic.cc:101:sample_data$$auto$rtlil.cc:3098:Mux$99#sampled$211
  (= (|gf_fifo#34| state) (|gf_fifo#32| next_state)) ; $auto$clk2fflogic.cc:108:sample_data$210 $auto$clk2fflogic.cc:101:sample_data$\mem[1]#sampled$209
  (= (|gf_fifo#56| state) (|gf_fifo#30| next_state)) ; $auto$clk2fflogic.cc:108:sample_data$202 $auto$clk2fflogic.cc:101:sample_data$$auto$rtlil.cc:3098:Mux$106#sampled$201
  (= (|gf_fifo#31| state) (|gf_fifo#29| next_state)) ; $auto$clk2fflogic.cc:108:sample_data$200 $auto$clk2fflogic.cc:101:sample_data$\mem[2]#sampled$199
  (= (|gf_fifo#60| state) (|gf_fifo#27| next_state)) ; $auto$clk2fflogic.cc:108:sample_data$192 $auto$clk2fflogic.cc:101:sample_data$$auto$rtlil.cc:3098:Mux$113#sampled$191
  (= (|gf_fifo#28| state) (|gf_fifo#26| next_state)) ; $auto$clk2fflogic.cc:108:sample_data$190 $auto$clk2fflogic.cc:101:sample_data$\mem[3]#sampled$189
  (= (|gf_fifo#63| state) (|gf_fifo#20| next_state)) ; $auto$clk2fflogic.cc:108:sample_data$156 $auto$clk2fflogic.cc:101:sample_data$$0\rptr_q[1:0]#sampled$155
  (= (|gf_fifo#23| state) (|gf_fifo#19| next_state)) ; $auto$clk2fflogic.cc:108:sample_data$154 $auto$clk2fflogic.cc:101:sample_data$\rptr_q#sampled$153
  (= (|gf_fifo#66| state) (|gf_fifo#14| next_state)) ; $auto$clk2fflogic.cc:108:sample_data$174 $auto$clk2fflogic.cc:101:sample_data$$0\wptr_q[1:0]#sampled$173
  (= (|gf_fifo#17| state) (|gf_fifo#13| next_state)) ; $auto$clk2fflogic.cc:108:sample_data$172 $auto$clk2fflogic.cc:101:sample_data$\wptr_q#sampled$171
  (= (|gf_fifo#67| state) (|gf_fifo#7| next_state)) ; $auto$clk2fflogic.cc:80:sample_control$148 $auto$clk2fflogic.cc:75:sample_control$$auto$rtlil.cc:2963:Not$146#sampled$147
  (= (|gf_fifo#4| state) (|gf_fifo#3| next_state)) ; $auto$clk2fflogic.cc:92:sample_control_edge$130 $auto$clk2fflogic.cc:87:sample_control_edge$\clk_i#sampled$129
  (= (|gf_fifo#72| state) (|gf_fifo#2| next_state)) ; $auto$clk2fflogic.cc:108:sample_data$138 $auto$clk2fflogic.cc:101:sample_data$$0\cnt_q[2:0]#sampled$137
  (= (|gf_fifo#10| state) (|gf_fifo#1| next_state)) ; $auto$clk2fflogic.cc:108:sample_data$136 $auto$clk2fflogic.cc:101:sample_data$\cnt_q#sampled$135
)) ; end of module gf_fifo
; yosys-smt2-topmod gf_fifo
; end of yosys output
